problems/csplib-prob056/sonet-models/noch/O2/lingeling/model_3_1-s2ring08-solution000001.eprime-solution
language ESSENCE' 1.0

letting network_ExplicitWithFlagsR5_Flags be [4, 1, 1, 0, 0, 0; int(1..6)]
letting network_ExplicitWithFlagsR5_Values_ExplicitVarSizeWithMarker_Marker be [4, 5, 5, 0, 0, 0; int(1..6)]
letting network_ExplicitWithFlagsR5_Values_ExplicitVarSizeWithMarker_Values be
        [[1, 3, 8, 10, 1; int(1..5)], [2, 5, 6, 7, 10; int(1..5)], [3, 4, 6, 7, 9; int(1..5)],
         [1, 1, 1, 1, 1; int(1..5)], [1, 1, 1, 1, 1; int(1..5)], [1, 1, 1, 1, 1; int(1..5)]; int(1..6)]
