problems/csplib-prob056/sonet-models/noch/O2/minion/model_3_1-s2ring08-solution000001.solution
language Essence 1.3

letting network be mset({}, {1}, {1, 3, 8, 10}, {2}, {2, 5, 6, 7, 10}, {3, 4, 6, 7, 9})
$ Visualisation for network
$ 
$  1
$  1  3  8 10
$  2
$  2  5  6  7 10
$  3  4  6  7  9

